34 32
29 182
17 884
20 564
4 910
5 712
7 241
25 775
4 674
8 555
11 95
8 499
24 965
12 547
19 840
24 932
25 269
11 760
26 379
20 852
13 132
15 682
7 42
31 108
21 107
20 866
3 572
5 911
12 569
7 894
22 654
8 57
5 236
5 59
10 808
